(set-info :smt-lib-version 2.6)
(set-logic AUFBVFPDTNIRA)
(set-info :source |
Generated by: AdaCore
Generated on: 2020-03-06
Generator: SPARK
Application: Program verification for Ada
Target solver: CVC4
|)
(set-info :license "https://creativecommons.org/licenses/by/4.0/")
(set-info :category "industrial")
(set-info :status unknown)
;;; generated by SMT-LIB2 driver
;;; SMT-LIB2 driver: bit-vectors, common part
;;; SMT-LIB2: integer arithmetic
(declare-sort string 0)

(declare-datatypes ((tuple0 0))
(((Tuple0))))
(declare-sort us_private 0)

(declare-fun private__bool_eq (us_private us_private) Bool)

(declare-const us_null_ext__ us_private)

(declare-sort us_type_of_heap 0)

(declare-datatypes ((us_type_of_heap__ref 0))
(((us_type_of_heap__refqtmk (us_type_of_heap__content us_type_of_heap)))))
(declare-sort us_image 0)

(declare-datatypes ((int__ref 0))
(((int__refqtmk (int__content Int)))))
(declare-datatypes ((bool__ref 0))
(((bool__refqtmk (bool__content Bool)))))
(declare-datatypes ((us_fixed__ref 0))
(((us_fixed__refqtmk (us_fixed__content Int)))))
(declare-datatypes ((real__ref 0))
(((real__refqtmk (real__content Real)))))
(declare-datatypes ((us_private__ref 0))
(((us_private__refqtmk (us_private__content us_private)))))
(define-fun int__ref___projection ((a int__ref)) Int (int__content a))

(define-fun us_fixed__ref___projection ((a us_fixed__ref)) Int (us_fixed__content
                                                               a))

(define-fun bool__ref___projection ((a bool__ref)) Bool (bool__content a))

(define-fun real__ref___projection ((a real__ref)) Real (real__content a))

(define-fun us_private__ref___projection ((a us_private__ref)) us_private 
  (us_private__content a))

(define-fun in_range ((x Int)) Bool (or (= x 0) (= x 1)))

(declare-fun attr__ATTRIBUTE_IMAGE (Bool) us_image)

(declare-fun attr__ATTRIBUTE_VALUE__pre_check (us_image) Bool)

(declare-fun attr__ATTRIBUTE_VALUE (us_image) Bool)

(declare-sort us_main_type 0)

(declare-datatypes ((us_rep 0))
(((us_repqtmk
  (rec__local_borrow__list_acc__is_null_pointer Bool)(rec__local_borrow__list_acc__pointer_address Int)(rec__local_borrow__list_acc__pointer_value_abstr us_main_type)))))
(define-fun us_rep_rec__local_borrow__list_acc__is_null_pointer__projection ((a us_rep)) Bool 
  (rec__local_borrow__list_acc__is_null_pointer a))

(define-fun us_rep_rec__local_borrow__list_acc__pointer_address__projection ((a us_rep)) Int 
  (rec__local_borrow__list_acc__pointer_address a))

(define-fun us_rep_rec__local_borrow__list_acc__pointer_value_abstr__projection ((a us_rep)) us_main_type 
  (rec__local_borrow__list_acc__pointer_value_abstr a))

(declare-datatypes ((us_rep__ref 0))
(((us_rep__refqtmk (us_rep__content us_rep)))))
(define-fun us_rep__ref___rep__content__2__projection ((a us_rep__ref)) us_rep 
  (us_rep__content a))

(define-fun bool_eq ((a us_rep)
  (b us_rep)) Bool (ite (and
                        (= (rec__local_borrow__list_acc__is_null_pointer a) 
                        (rec__local_borrow__list_acc__is_null_pointer b))
                        (=>
                        (not
                        (= (rec__local_borrow__list_acc__is_null_pointer a) true))
                        (and
                        (= (rec__local_borrow__list_acc__pointer_address a) 
                        (rec__local_borrow__list_acc__pointer_address b))
                        (= (rec__local_borrow__list_acc__pointer_value_abstr
                           a) (rec__local_borrow__list_acc__pointer_value_abstr
                              b)))))
                   true false))

(declare-const dummy us_rep)

(declare-datatypes ((t1b__ref 0))
(((t1b__refqtmk (t1b__content us_rep)))))
(define-fun t1b__ref_t1b__content__projection ((a t1b__ref)) us_rep (t1b__content
                                                                    a))

(declare-const x us_rep)

(declare-const attr__ATTRIBUTE_ADDRESS Int)

(declare-const dummy1 us_rep)

(declare-datatypes ((t2b__ref 0))
(((t2b__refqtmk (t2b__content us_rep)))))
(define-fun t2b__ref_t2b__content__projection ((a t2b__ref)) us_rep (t2b__content
                                                                    a))

(declare-fun get_next (us_rep) us_rep)

(declare-fun get_next__function_guard (us_rep us_rep) Bool)

(declare-sort us_pledge_ty 0)

(declare-datatypes ((us_pledge_ty__ref 0))
(((us_pledge_ty__refqtmk (us_pledge_ty__content us_pledge_ty)))))
(declare-fun us_pledge_get (us_pledge_ty us_rep us_rep) Bool)

(declare-fun local_borrow__get_next__pledge (us_rep) us_pledge_ty)

(declare-sort integer 0)

(declare-fun integerqtint (integer) Int)

;; integer'axiom
  (assert
  (forall ((i integer))
  (and (<= (- 2147483648) (integerqtint i)) (<= (integerqtint i) 2147483647))))

(define-fun in_range1 ((x1 Int)) Bool (and (<= (- 2147483648) x1)
                                      (<= x1 2147483647)))

(declare-fun attr__ATTRIBUTE_IMAGE1 (Int) us_image)

(declare-fun attr__ATTRIBUTE_VALUE__pre_check1 (us_image) Bool)

(declare-fun attr__ATTRIBUTE_VALUE1 (us_image) Int)

(declare-fun user_eq (integer integer) Bool)

(declare-const dummy2 integer)

(declare-datatypes ((integer__ref 0))
(((integer__refqtmk (integer__content integer)))))
(define-fun integer__ref_integer__content__projection ((a integer__ref)) integer 
  (integer__content a))

(define-fun to_rep ((x1 integer)) Int (integerqtint x1))

(declare-fun of_rep (Int) integer)

;; inversion_axiom
  (assert
  (forall ((x1 integer))
  (! (= (of_rep (to_rep x1)) x1) :pattern ((to_rep x1)) )))

;; range_axiom
  (assert
  (forall ((x1 integer)) (! (in_range1 (to_rep x1)) :pattern ((to_rep x1)) )))

;; coerce_axiom
  (assert
  (forall ((x1 Int))
  (! (=> (in_range1 x1) (= (to_rep (of_rep x1)) x1)) :pattern ((to_rep
                                                               (of_rep x1))) )))

(declare-const dummy3 us_rep)

(declare-datatypes ((list_acc__ref 0))
(((list_acc__refqtmk (list_acc__content us_rep)))))
(define-fun list_acc__ref_list_acc__content__projection ((a list_acc__ref)) us_rep 
  (list_acc__content a))

(declare-datatypes ((us_split_fields 0))
(((us_split_fieldsqtmk
  (rec__local_borrow__list__v integer)(rec__local_borrow__list__n us_rep)))))
(define-fun us_split_fields_rec__local_borrow__list__v__projection ((a us_split_fields)) integer 
  (rec__local_borrow__list__v a))

(define-fun us_split_fields_rec__local_borrow__list__n__projection ((a us_split_fields)) us_rep 
  (rec__local_borrow__list__n a))

(declare-datatypes ((us_split_fields__ref 0))
(((us_split_fields__refqtmk (us_split_fields__content us_split_fields)))))
(define-fun us_split_fields__ref___split_fields__content__projection ((a us_split_fields__ref)) us_split_fields 
  (us_split_fields__content a))

(declare-datatypes ((us_rep1 0))
(((us_repqtmk1 (us_split_fields1 us_split_fields)))))
(define-fun us_rep___split_fields__projection ((a us_rep1)) us_split_fields 
  (us_split_fields1 a))

(define-fun bool_eq1 ((a us_rep1)
  (b us_rep1)) Bool (ite (and
                         (= (to_rep
                            (rec__local_borrow__list__v (us_split_fields1 a))) 
                         (to_rep
                         (rec__local_borrow__list__v (us_split_fields1 b))))
                         (= (bool_eq
                            (rec__local_borrow__list__n (us_split_fields1 a))
                            (rec__local_borrow__list__n (us_split_fields1 b))) true))
                    true false))

(declare-const value__size Int)

(declare-const object__size Int)

(declare-const alignment Int)

;; value__size_axiom
  (assert (<= 0 value__size))

;; object__size_axiom
  (assert (<= 0 object__size))

;; alignment_axiom
  (assert (<= 0 alignment))

(declare-const local_borrow__list__v__first__bit Int)

(declare-const local_borrow__list__v__last__bit Int)

(declare-const local_borrow__list__v__position Int)

;; local_borrow__list__v__first__bit_axiom
  (assert (<= 0 local_borrow__list__v__first__bit))

;; local_borrow__list__v__last__bit_axiom
  (assert
  (< local_borrow__list__v__first__bit local_borrow__list__v__last__bit))

;; local_borrow__list__v__position_axiom
  (assert (<= 0 local_borrow__list__v__position))

(declare-const local_borrow__list__n__first__bit Int)

(declare-const local_borrow__list__n__last__bit Int)

(declare-const local_borrow__list__n__position Int)

;; local_borrow__list__n__first__bit_axiom
  (assert (<= 0 local_borrow__list__n__first__bit))

;; local_borrow__list__n__last__bit_axiom
  (assert
  (< local_borrow__list__n__first__bit local_borrow__list__n__last__bit))

;; local_borrow__list__n__position_axiom
  (assert (<= 0 local_borrow__list__n__position))

(declare-fun user_eq1 (us_rep1 us_rep1) Bool)

(declare-const dummy4 us_rep1)

(declare-datatypes ((list__ref 0))
(((list__refqtmk (list__content us_rep1)))))
(define-fun list__ref_list__content__projection ((a list__ref)) us_rep1 
  (list__content a))

(declare-fun us_open (us_main_type) us_rep1)

(declare-fun us_close (us_rep1) us_main_type)

;; close_open
  (assert
  (forall ((x1 us_main_type))
  (! (= (us_close (us_open x1)) x1) :pattern ((us_open x1)) )))

;; open_close
  (assert
  (forall ((x1 us_rep1))
  (! (= (us_open (us_close x1)) x1) :pattern ((us_close x1)) )))

(define-fun rec__local_borrow__list_acc__pointer_value ((a us_rep)) us_rep1 
  (us_open (rec__local_borrow__list_acc__pointer_value_abstr a)))

(define-fun rec__local_borrow__list_acc__pointer_value__pred ((a us_rep)) Bool 
  (not (= (rec__local_borrow__list_acc__is_null_pointer a) true)))

(declare-const us_null_pointer us_rep)

;; __null_pointer__def_axiom
  (assert
  (= (rec__local_borrow__list_acc__is_null_pointer us_null_pointer) true))

(define-fun dynamic_invariant ((temp___expr_18 Int) (temp___is_init_14 Bool)
  (temp___skip_constant_15 Bool) (temp___do_toplevel_16 Bool)
  (temp___do_typ_inv_17 Bool)) Bool (=>
                                    (or (= temp___is_init_14 true)
                                    (<= (- 2147483648) 2147483647))
                                    (in_range1 temp___expr_18)))

(define-fun default_initial_assumption ((temp___expr_188 us_rep)
  (temp___skip_top_level_189 Bool)) Bool (= (rec__local_borrow__list_acc__is_null_pointer
                                            temp___expr_188) true))

(define-fun default_initial_assumption1 ((temp___expr_195 us_rep1)
  (temp___skip_top_level_196 Bool)) Bool (= (rec__local_borrow__list_acc__is_null_pointer
                                            (rec__local_borrow__list__n
                                            (us_split_fields1
                                            temp___expr_195))) true))

;; get_next__post_axiom
  (assert
  (forall ((x1 us_rep))
  (! (=> (not (= (bool_eq x1 us_null_pointer) true))
     (let ((result (get_next x1)))
     (=> (get_next__function_guard result x1)
     (= (us_pledge_get (local_borrow__get_next__pledge x1) x1 result) true)))) :pattern (
  (get_next x1)) )))

(assert
;; defqtvc
 ;; File "local_borrow.adb", line 10, characters 0-0
  (not
  (=> (not (= (bool_eq x us_null_pointer) true))
  (rec__local_borrow__list_acc__pointer_value__pred x))))
(check-sat)
